words_train/words_501_UNSAT.qaiger
aag 65 16 0 1 49
32
16
8
22
20
12
26
30
6
4
18
10
28
2
14
24
130
34 26 16
36 27 17
38 24 16
40 22 16
42 20 16
44 21 17
46 45 43
48 46 14
50 48 18
52 51 43
54 23 17
56 55 41
58 56 53
60 59 41
62 25 17
64 63 39
66 64 61
68 67 39
70 69 35
72 70 37
74 73 35
76 28 16
78 33 31
80 78 16
82 32 30
84 82 28
86 85 81
88 87 77
90 89 75
92 65 60
94 93 67
96 47 19
98 96 15
100 99 51
102 79 28
104 103 83
106 105 16
108 107 101
110 108 95
112 110 91
114 78 36
116 114 29
118 117 35
120 119 68
122 121 73
124 57 52
126 125 59
128 127 123
130 128 112
i0 1 x[7]
i1 2 y[7]
i2 2 y[3]
i3 1 x[2]
i4 1 x[1]
i5 2 y[5]
i6 1 x[4]
i7 1 x[6]
i8 2 y[2]
i9 2 y[1]
i10 1 x[0]
i11 2 y[4]
i12 1 x[5]
i13 2 y[0]
i14 2 y[6]
i15 1 x[3]
o0 bool[0]
c
simplified
  ==
    abs
      1
    add
      add
        >> 6
          2 y
        1 x
      1
