words_train/words_501_UNSAT.qaiger.qdimacs
p cnf 65 148
a 9 10 11 12 13 14 15 16 0
e 1 2 3 4 5 6 7 8 17 18 19 20 21 22 23 24 25 26 27 28 29 30 31 32 33 34 35 36 37 38 39 40 41 42 43 44 45 46 47 48 49 50 51 52 53 54 55 56 57 58 59 60 61 62 63 64 65 0
-13 -8 17 0
13 -17 0
8 -17 0
13 8 18 0
-13 -18 0
-8 -18 0
-12 -8 19 0
12 -19 0
8 -19 0
-11 -8 20 0
11 -20 0
8 -20 0
-10 -8 21 0
10 -21 0
8 -21 0
10 8 22 0
-10 -22 0
-8 -22 0
22 21 23 0
-22 -23 0
-21 -23 0
-23 -7 24 0
23 -24 0
7 -24 0
-24 -9 25 0
24 -25 0
9 -25 0
25 21 26 0
-25 -26 0
-21 -26 0
11 8 27 0
-11 -27 0
-8 -27 0
27 20 28 0
-27 -28 0
-20 -28 0
-28 26 29 0
28 -29 0
-26 -29 0
29 20 30 0
-29 -30 0
-20 -30 0
12 8 31 0
-12 -31 0
-8 -31 0
31 19 32 0
-31 -32 0
-19 -32 0
-32 30 33 0
32 -33 0
-30 -33 0
33 19 34 0
-33 -34 0
-19 -34 0
34 17 35 0
-34 -35 0
-17 -35 0
-35 18 36 0
35 -36 0
-18 -36 0
36 17 37 0
-36 -37 0
-17 -37 0
-14 -8 38 0
14 -38 0
8 -38 0
16 15 39 0
-16 -39 0
-15 -39 0
-39 -8 40 0
39 -40 0
8 -40 0
-16 -15 41 0
16 -41 0
15 -41 0
-41 -14 42 0
41 -42 0
14 -42 0
42 40 43 0
-42 -43 0
-40 -43 0
43 38 44 0
-43 -44 0
-38 -44 0
44 37 45 0
-44 -45 0
-37 -45 0
32 -30 46 0
-32 -46 0
30 -46 0
46 33 47 0
-46 -47 0
-33 -47 0
23 9 48 0
-23 -48 0
-9 -48 0
-48 7 49 0
48 -49 0
-7 -49 0
49 25 50 0
-49 -50 0
-25 -50 0
39 -14 51 0
-39 -51 0
14 -51 0
51 41 52 0
-51 -52 0
-41 -52 0
52 -8 53 0
-52 -53 0
8 -53 0
53 50 54 0
-53 -54 0
-50 -54 0
-54 47 55 0
54 -55 0
-47 -55 0
-55 45 56 0
55 -56 0
-45 -56 0
-39 -18 57 0
39 -57 0
18 -57 0
-57 14 58 0
57 -58 0
-14 -58 0
58 17 59 0
-58 -59 0
-17 -59 0
59 -34 60 0
-59 -60 0
34 -60 0
60 36 61 0
-60 -61 0
-36 -61 0
28 -26 62 0
-28 -62 0
26 -62 0
62 29 63 0
-62 -63 0
-29 -63 0
63 61 64 0
-63 -64 0
-61 -64 0
-64 -56 65 0
64 -65 0
56 -65 0
65 0
